p cnf 0 0
c 1 color par vertex et au plus 1
6 7 8 9 0
-7 -6 0
-8 -6 0
-9 -6 0
-8 -7 0
-9 -7 0
-9 -8 0
10 11 12 13 0
-11 -10 0
-12 -10 0
-13 -10 0
-12 -11 0
-13 -11 0
-13 -12 0
14 15 16 17 0
-15 -14 0
-16 -14 0
-17 -14 0
-16 -15 0
-17 -15 0
-17 -16 0
18 19 20 21 0
-19 -18 0
-20 -18 0
-21 -18 0
-20 -19 0
-21 -19 0
-21 -20 0
22 23 24 25 0
-23 -22 0
-24 -22 0
-25 -22 0
-24 -23 0
-25 -23 0
-25 -24 0
26 27 28 29 0
-27 -26 0
-28 -26 0
-29 -26 0
-28 -27 0
-29 -27 0
-29 -28 0
c gc coresp to G
-6 -11 30 0
-6 -11 -31 1 0
-6 -11 31 -1 0
-6 -12 32 0
-6 -12 -33 1 0
-6 -12 33 -1 0
-6 -13 34 0
-6 -13 -35 1 0
-6 -13 35 -1 0
-7 -10 30 0
-7 -10 -31 1 0
-7 -10 31 -1 0
-7 -12 36 0
-7 -12 -37 1 0
-7 -12 37 -1 0
-7 -13 38 0
-7 -13 -39 1 0
-7 -13 39 -1 0
-8 -10 32 0
-8 -10 -33 1 0
-8 -10 33 -1 0
-8 -11 36 0
-8 -11 -37 1 0
-8 -11 37 -1 0
-8 -13 40 0
-8 -13 -41 1 0
-8 -13 41 -1 0
-9 -10 34 0
-9 -10 -35 1 0
-9 -10 35 -1 0
-9 -11 38 0
-9 -11 -39 1 0
-9 -11 39 -1 0
-9 -12 40 0
-9 -12 -41 1 0
-9 -12 41 -1 0
-10 -15 30 0
-10 -15 -31 2 0
-10 -15 31 -2 0
-10 -16 32 0
-10 -16 -33 2 0
-10 -16 33 -2 0
-10 -17 34 0
-10 -17 -35 2 0
-10 -17 35 -2 0
-11 -14 30 0
-11 -14 -31 2 0
-11 -14 31 -2 0
-11 -16 36 0
-11 -16 -37 2 0
-11 -16 37 -2 0
-11 -17 38 0
-11 -17 -39 2 0
-11 -17 39 -2 0
-12 -14 32 0
-12 -14 -33 2 0
-12 -14 33 -2 0
-12 -15 36 0
-12 -15 -37 2 0
-12 -15 37 -2 0
-12 -17 40 0
-12 -17 -41 2 0
-12 -17 41 -2 0
-13 -14 34 0
-13 -14 -35 2 0
-13 -14 35 -2 0
-13 -15 38 0
-13 -15 -39 2 0
-13 -15 39 -2 0
-13 -16 40 0
-13 -16 -41 2 0
-13 -16 41 -2 0
-14 -19 30 0
-14 -19 -31 3 0
-14 -19 31 -3 0
-14 -20 32 0
-14 -20 -33 3 0
-14 -20 33 -3 0
-14 -21 34 0
-14 -21 -35 3 0
-14 -21 35 -3 0
-15 -18 30 0
-15 -18 -31 3 0
-15 -18 31 -3 0
-15 -20 36 0
-15 -20 -37 3 0
-15 -20 37 -3 0
-15 -21 38 0
-15 -21 -39 3 0
-15 -21 39 -3 0
-16 -18 32 0
-16 -18 -33 3 0
-16 -18 33 -3 0
-16 -19 36 0
-16 -19 -37 3 0
-16 -19 37 -3 0
-16 -21 40 0
-16 -21 -41 3 0
-16 -21 41 -3 0
-17 -18 34 0
-17 -18 -35 3 0
-17 -18 35 -3 0
-17 -19 38 0
-17 -19 -39 3 0
-17 -19 39 -3 0
-17 -20 40 0
-17 -20 -41 3 0
-17 -20 41 -3 0
-18 -23 30 0
-18 -23 -31 4 0
-18 -23 31 -4 0
-18 -24 32 0
-18 -24 -33 4 0
-18 -24 33 -4 0
-18 -25 34 0
-18 -25 -35 4 0
-18 -25 35 -4 0
-19 -22 30 0
-19 -22 -31 4 0
-19 -22 31 -4 0
-19 -24 36 0
-19 -24 -37 4 0
-19 -24 37 -4 0
-19 -25 38 0
-19 -25 -39 4 0
-19 -25 39 -4 0
-20 -22 32 0
-20 -22 -33 4 0
-20 -22 33 -4 0
-20 -23 36 0
-20 -23 -37 4 0
-20 -23 37 -4 0
-20 -25 40 0
-20 -25 -41 4 0
-20 -25 41 -4 0
-21 -22 34 0
-21 -22 -35 4 0
-21 -22 35 -4 0
-21 -23 38 0
-21 -23 -39 4 0
-21 -23 39 -4 0
-21 -24 40 0
-21 -24 -41 4 0
-21 -24 41 -4 0
-22 -27 30 0
-22 -27 -31 5 0
-22 -27 31 -5 0
-22 -28 32 0
-22 -28 -33 5 0
-22 -28 33 -5 0
-22 -29 34 0
-22 -29 -35 5 0
-22 -29 35 -5 0
-23 -26 30 0
-23 -26 -31 5 0
-23 -26 31 -5 0
-23 -28 36 0
-23 -28 -37 5 0
-23 -28 37 -5 0
-23 -29 38 0
-23 -29 -39 5 0
-23 -29 39 -5 0
-24 -26 32 0
-24 -26 -33 5 0
-24 -26 33 -5 0
-24 -27 36 0
-24 -27 -37 5 0
-24 -27 37 -5 0
-24 -29 40 0
-24 -29 -41 5 0
-24 -29 41 -5 0
-25 -26 34 0
-25 -26 -35 5 0
-25 -26 35 -5 0
-25 -27 38 0
-25 -27 -39 5 0
-25 -27 39 -5 0
-25 -28 40 0
-25 -28 -41 5 0
-25 -28 41 -5 0
c X
-43 6 0
-42 6 0
-43 11 0
-42 11 0
-43 1 0
-42 -1 0
43 -6 -11 -1 0
42 -6 -11 1 0
-45 6 0
-44 6 0
-45 12 0
-44 12 0
-45 1 0
-44 -1 0
45 -6 -12 -1 0
44 -6 -12 1 0
-47 6 0
-46 6 0
-47 13 0
-46 13 0
-47 1 0
-46 -1 0
47 -6 -13 -1 0
46 -6 -13 1 0
-49 7 0
-48 7 0
-49 10 0
-48 10 0
-49 1 0
-48 -1 0
49 -7 -10 -1 0
48 -7 -10 1 0
-51 7 0
-50 7 0
-51 12 0
-50 12 0
-51 1 0
-50 -1 0
51 -7 -12 -1 0
50 -7 -12 1 0
-53 7 0
-52 7 0
-53 13 0
-52 13 0
-53 1 0
-52 -1 0
53 -7 -13 -1 0
52 -7 -13 1 0
-55 8 0
-54 8 0
-55 10 0
-54 10 0
-55 1 0
-54 -1 0
55 -8 -10 -1 0
54 -8 -10 1 0
-57 8 0
-56 8 0
-57 11 0
-56 11 0
-57 1 0
-56 -1 0
57 -8 -11 -1 0
56 -8 -11 1 0
-59 8 0
-58 8 0
-59 13 0
-58 13 0
-59 1 0
-58 -1 0
59 -8 -13 -1 0
58 -8 -13 1 0
-61 9 0
-60 9 0
-61 10 0
-60 10 0
-61 1 0
-60 -1 0
61 -9 -10 -1 0
60 -9 -10 1 0
-63 9 0
-62 9 0
-63 11 0
-62 11 0
-63 1 0
-62 -1 0
63 -9 -11 -1 0
62 -9 -11 1 0
-65 9 0
-64 9 0
-65 12 0
-64 12 0
-65 1 0
-64 -1 0
65 -9 -12 -1 0
64 -9 -12 1 0
-67 10 0
-66 10 0
-67 15 0
-66 15 0
-67 2 0
-66 -2 0
67 -10 -15 -2 0
66 -10 -15 2 0
-69 10 0
-68 10 0
-69 16 0
-68 16 0
-69 2 0
-68 -2 0
69 -10 -16 -2 0
68 -10 -16 2 0
-71 10 0
-70 10 0
-71 17 0
-70 17 0
-71 2 0
-70 -2 0
71 -10 -17 -2 0
70 -10 -17 2 0
-73 11 0
-72 11 0
-73 14 0
-72 14 0
-73 2 0
-72 -2 0
73 -11 -14 -2 0
72 -11 -14 2 0
-75 11 0
-74 11 0
-75 16 0
-74 16 0
-75 2 0
-74 -2 0
75 -11 -16 -2 0
74 -11 -16 2 0
-77 11 0
-76 11 0
-77 17 0
-76 17 0
-77 2 0
-76 -2 0
77 -11 -17 -2 0
76 -11 -17 2 0
-79 12 0
-78 12 0
-79 14 0
-78 14 0
-79 2 0
-78 -2 0
79 -12 -14 -2 0
78 -12 -14 2 0
-81 12 0
-80 12 0
-81 15 0
-80 15 0
-81 2 0
-80 -2 0
81 -12 -15 -2 0
80 -12 -15 2 0
-83 12 0
-82 12 0
-83 17 0
-82 17 0
-83 2 0
-82 -2 0
83 -12 -17 -2 0
82 -12 -17 2 0
-85 13 0
-84 13 0
-85 14 0
-84 14 0
-85 2 0
-84 -2 0
85 -13 -14 -2 0
84 -13 -14 2 0
-87 13 0
-86 13 0
-87 15 0
-86 15 0
-87 2 0
-86 -2 0
87 -13 -15 -2 0
86 -13 -15 2 0
-89 13 0
-88 13 0
-89 16 0
-88 16 0
-89 2 0
-88 -2 0
89 -13 -16 -2 0
88 -13 -16 2 0
-91 14 0
-90 14 0
-91 19 0
-90 19 0
-91 3 0
-90 -3 0
91 -14 -19 -3 0
90 -14 -19 3 0
-93 14 0
-92 14 0
-93 20 0
-92 20 0
-93 3 0
-92 -3 0
93 -14 -20 -3 0
92 -14 -20 3 0
-95 14 0
-94 14 0
-95 21 0
-94 21 0
-95 3 0
-94 -3 0
95 -14 -21 -3 0
94 -14 -21 3 0
-97 15 0
-96 15 0
-97 18 0
-96 18 0
-97 3 0
-96 -3 0
97 -15 -18 -3 0
96 -15 -18 3 0
-99 15 0
-98 15 0
-99 20 0
-98 20 0
-99 3 0
-98 -3 0
99 -15 -20 -3 0
98 -15 -20 3 0
-101 15 0
-100 15 0
-101 21 0
-100 21 0
-101 3 0
-100 -3 0
101 -15 -21 -3 0
100 -15 -21 3 0
-103 16 0
-102 16 0
-103 18 0
-102 18 0
-103 3 0
-102 -3 0
103 -16 -18 -3 0
102 -16 -18 3 0
-105 16 0
-104 16 0
-105 19 0
-104 19 0
-105 3 0
-104 -3 0
105 -16 -19 -3 0
104 -16 -19 3 0
-107 16 0
-106 16 0
-107 21 0
-106 21 0
-107 3 0
-106 -3 0
107 -16 -21 -3 0
106 -16 -21 3 0
-109 17 0
-108 17 0
-109 18 0
-108 18 0
-109 3 0
-108 -3 0
109 -17 -18 -3 0
108 -17 -18 3 0
-111 17 0
-110 17 0
-111 19 0
-110 19 0
-111 3 0
-110 -3 0
111 -17 -19 -3 0
110 -17 -19 3 0
-113 17 0
-112 17 0
-113 20 0
-112 20 0
-113 3 0
-112 -3 0
113 -17 -20 -3 0
112 -17 -20 3 0
-115 18 0
-114 18 0
-115 23 0
-114 23 0
-115 4 0
-114 -4 0
115 -18 -23 -4 0
114 -18 -23 4 0
-117 18 0
-116 18 0
-117 24 0
-116 24 0
-117 4 0
-116 -4 0
117 -18 -24 -4 0
116 -18 -24 4 0
-119 18 0
-118 18 0
-119 25 0
-118 25 0
-119 4 0
-118 -4 0
119 -18 -25 -4 0
118 -18 -25 4 0
-121 19 0
-120 19 0
-121 22 0
-120 22 0
-121 4 0
-120 -4 0
121 -19 -22 -4 0
120 -19 -22 4 0
-123 19 0
-122 19 0
-123 24 0
-122 24 0
-123 4 0
-122 -4 0
123 -19 -24 -4 0
122 -19 -24 4 0
-125 19 0
-124 19 0
-125 25 0
-124 25 0
-125 4 0
-124 -4 0
125 -19 -25 -4 0
124 -19 -25 4 0
-127 20 0
-126 20 0
-127 22 0
-126 22 0
-127 4 0
-126 -4 0
127 -20 -22 -4 0
126 -20 -22 4 0
-129 20 0
-128 20 0
-129 23 0
-128 23 0
-129 4 0
-128 -4 0
129 -20 -23 -4 0
128 -20 -23 4 0
-131 20 0
-130 20 0
-131 25 0
-130 25 0
-131 4 0
-130 -4 0
131 -20 -25 -4 0
130 -20 -25 4 0
-133 21 0
-132 21 0
-133 22 0
-132 22 0
-133 4 0
-132 -4 0
133 -21 -22 -4 0
132 -21 -22 4 0
-135 21 0
-134 21 0
-135 23 0
-134 23 0
-135 4 0
-134 -4 0
135 -21 -23 -4 0
134 -21 -23 4 0
-137 21 0
-136 21 0
-137 24 0
-136 24 0
-137 4 0
-136 -4 0
137 -21 -24 -4 0
136 -21 -24 4 0
-139 22 0
-138 22 0
-139 27 0
-138 27 0
-139 5 0
-138 -5 0
139 -22 -27 -5 0
138 -22 -27 5 0
-141 22 0
-140 22 0
-141 28 0
-140 28 0
-141 5 0
-140 -5 0
141 -22 -28 -5 0
140 -22 -28 5 0
-143 22 0
-142 22 0
-143 29 0
-142 29 0
-143 5 0
-142 -5 0
143 -22 -29 -5 0
142 -22 -29 5 0
-145 23 0
-144 23 0
-145 26 0
-144 26 0
-145 5 0
-144 -5 0
145 -23 -26 -5 0
144 -23 -26 5 0
-147 23 0
-146 23 0
-147 28 0
-146 28 0
-147 5 0
-146 -5 0
147 -23 -28 -5 0
146 -23 -28 5 0
-149 23 0
-148 23 0
-149 29 0
-148 29 0
-149 5 0
-148 -5 0
149 -23 -29 -5 0
148 -23 -29 5 0
-151 24 0
-150 24 0
-151 26 0
-150 26 0
-151 5 0
-150 -5 0
151 -24 -26 -5 0
150 -24 -26 5 0
-153 24 0
-152 24 0
-153 27 0
-152 27 0
-153 5 0
-152 -5 0
153 -24 -27 -5 0
152 -24 -27 5 0
-155 24 0
-154 24 0
-155 29 0
-154 29 0
-155 5 0
-154 -5 0
155 -24 -29 -5 0
154 -24 -29 5 0
-157 25 0
-156 25 0
-157 26 0
-156 26 0
-157 5 0
-156 -5 0
157 -25 -26 -5 0
156 -25 -26 5 0
-159 25 0
-158 25 0
-159 27 0
-158 27 0
-159 5 0
-158 -5 0
159 -25 -27 -5 0
158 -25 -27 5 0
-161 25 0
-160 25 0
-161 28 0
-160 28 0
-161 5 0
-160 -5 0
161 -25 -28 -5 0
160 -25 -28 5 0
c x suite
-30 -31 43 49 67 73 91 97 115 121 139 145 0
-32 -33 45 55 69 79 93 103 117 127 141 151 0
-34 -35 47 61 71 85 95 109 119 133 143 157 0
-36 -37 51 57 75 81 99 105 123 129 147 153 0
-38 -39 53 63 77 87 101 111 125 135 149 159 0
-40 -41 59 65 83 89 107 113 131 137 155 161 0
-30 31 42 48 66 72 90 96 114 120 138 144 0
-32 33 44 54 68 78 92 102 116 126 140 150 0
-34 35 46 60 70 84 94 108 118 132 142 156 0
-36 37 50 56 74 80 98 104 122 128 146 152 0
-38 39 52 62 76 86 100 110 124 134 148 158 0
-40 41 58 64 82 88 106 112 130 136 154 160 0
c proper colo
-6 -10 0
-7 -11 0
-8 -12 0
-9 -13 0
-10 -14 0
-11 -15 0
-12 -16 0
-13 -17 0
-14 -18 0
-15 -19 0
-16 -20 0
-17 -21 0
-18 -22 0
-19 -23 0
-20 -24 0
-21 -25 0
-22 -26 0
-23 -27 0
-24 -28 0
-25 -29 0
30 162 163 0
32 164 165 0
34 166 167 0
36 168 169 0
38 170 171 0
40 172 173 0
-162 32 0
-162 36 0
-162 33 37 0
-162 -33 -37 0
162 -32 -36 33 -37 0
162 -32 -36 -33 37 0
-163 34 0
-163 38 0
-163 35 39 0
-163 -35 -39 0
163 -34 -38 35 -39 0
163 -34 -38 -35 39 0
-164 30 0
-164 36 0
-164 31 37 0
-164 -31 -37 0
164 -30 -36 31 -37 0
164 -30 -36 -31 37 0
-165 34 0
-165 40 0
-165 35 41 0
-165 -35 -41 0
165 -34 -40 35 -41 0
165 -34 -40 -35 41 0
-166 30 0
-166 38 0
-166 31 39 0
-166 -31 -39 0
166 -30 -38 31 -39 0
166 -30 -38 -31 39 0
-167 32 0
-167 40 0
-167 33 41 0
-167 -33 -41 0
167 -32 -40 33 -41 0
167 -32 -40 -33 41 0
-168 30 0
-168 32 0
-168 31 33 0
-168 -31 -33 0
168 -30 -32 31 -33 0
168 -30 -32 -31 33 0
-169 38 0
-169 40 0
-169 39 41 0
-169 -39 -41 0
169 -38 -40 39 -41 0
169 -38 -40 -39 41 0
-170 30 0
-170 34 0
-170 31 35 0
-170 -31 -35 0
170 -30 -34 31 -35 0
170 -30 -34 -31 35 0
-171 36 0
-171 40 0
-171 37 41 0
-171 -37 -41 0
171 -36 -40 37 -41 0
171 -36 -40 -37 41 0
-172 32 0
-172 34 0
-172 33 35 0
-172 -33 -35 0
172 -32 -34 33 -35 0
172 -32 -34 -33 35 0
-173 36 0
-173 38 0
-173 37 39 0
-173 -37 -39 0
173 -36 -38 37 -39 0
173 -36 -38 -37 39 0
c K couleurs
6 10 14 18 22 26 0
7 11 15 19 23 27 0
8 12 16 20 24 28 0
9 13 17 21 25 29 0
1 0
-7 0
-8 0
-9 0
-12 0
-13 0
-17 0
